&FORCE_EVAL
   &DFT
     BASIS_SET_FILE_NAME  {}
     POTENTIAL_FILE_NAME  {}
     MULTIPLICITY  1
     &SCF
       MAX_SCF  25
       EPS_SCF  1.0E-06
       SCF_GUESS  RESTART
       &DIAGONALIZATION  T
         ALGORITHM  STANDARD
       &END DIAGONALIZATION
       &MIXING  T
         METHOD  PULAY_MIXING
         ALPHA  0.4
       &END MIXING
       &OUTER_SCF  T
         MAX_SCF  25
         EPS_SCF  1.0E-06
       &END OUTER_SCF
     &END SCF
     &QS
       METHOD  GPW
     &END QS
     &MGRID
       COMMENSURATE TRUE
       NGRIDS  5
     &END MGRID
     &XC
       &XC_FUNCTIONAL  PBE
       &END XC_FUNCTIONAL
       &VDW_POTENTIAL
         POTENTIAL_TYPE  PAIR_POTENTIAL
         &PAIR_POTENTIAL
           TYPE  DFTD3(BJ)
           PARAMETER_FILE_NAME  {}
           REFERENCE_FUNCTIONAL PBE
           R_CUTOFF  25
         &END PAIR_POTENTIAL
       &END VDW_POTENTIAL
     &END XC
     &KPOINTS
       SCHEME  MONKHORST-PACK  5 5 5
       FULL_GRID  F
     &END KPOINTS
   &END DFT
   &SUBSYS
     &KIND                         Cs
       ELEMENT                     Cs  
       BASIS_SET                   TZVP-MOLOPT-SR-GTH
       POTENTIAL                   GTH-PBE-q9
     &END KIND 
     &KIND                         Pb
       ELEMENT                     Pb 
       BASIS_SET                   TZVP-MOLOPT-SR-GTH
       POTENTIAL                   GTH-PBE-q4
     &END KIND 
     &KIND                         I
       ELEMENT                     I  
       BASIS_SET                   TZVP-MOLOPT-SR-GTH
       POTENTIAL                   GTH-PBE-q7
     &END KIND 
   &END SUBSYS
 &END FORCE_EVAL